Welcome to the CBC MILP Solver 
Version: Trunk
Build Date: Apr 16 2020 

Starting solution of the Linear programming relaxation problem using Primal Simplex

Using Python-MIP package version 1.8.1
Machines:  4 Jobs:  4
Order: 
Job  0 : machine 0 ( 10 ) machine 3 ( 1 ) machine 2 ( 6 ) machine 1 ( 7 ) 
Job  1 : machine 0 ( 1 ) machine 3 ( 7 ) machine 1 ( 5 ) machine 2 ( 8 ) 
Job  2 : machine 3 ( 9 ) machine 2 ( 3 ) machine 1 ( 7 ) machine 0 ( 1 ) 
Job  3 : machine 1 ( 7 ) machine 3 ( 3 ) machine 0 ( 9 ) machine 2 ( 10 ) 
K:  44
Job  0 , e: machine  0 ( 0 ) machine  1 ( 17 ) machine  2 ( 11 ) machine  3 ( 10 ) 
Job  1 , e: machine  0 ( 0 ) machine  1 ( 8 ) machine  2 ( 13 ) machine  3 ( 1 ) 
Job  2 , e: machine  0 ( 19 ) machine  1 ( 12 ) machine  2 ( 9 ) machine  3 ( 0 ) 
Job  3 , e: machine  0 ( 10 ) machine  1 ( 0 ) machine  2 ( 19 ) machine  3 ( 7 ) 
Job  0 , f: machine  0 ( 14 ) machine  1 ( 0 ) machine  2 ( 7 ) machine  3 ( 13 ) 
Job  1 , f: machine  0 ( 20 ) machine  1 ( 8 ) machine  2 ( 0 ) machine  3 ( 13 ) 
Job  2 , f: machine  0 ( 0 ) machine  1 ( 1 ) machine  2 ( 8 ) machine  3 ( 11 ) 
Job  3 , f: machine  0 ( 10 ) machine  1 ( 22 ) machine  2 ( 0 ) machine  3 ( 19 ) 
EST and LST:
Job: 0 Machine: 0 EST: 0 LST: 20
Job: 0 Machine: 1 EST: 17 LST: 37
Job: 0 Machine: 2 EST: 11 LST: 31
Job: 0 Machine: 3 EST: 10 LST: 30
Job: 1 Machine: 0 EST: 0 LST: 23
Job: 1 Machine: 1 EST: 8 LST: 31
Job: 1 Machine: 2 EST: 13 LST: 36
Job: 1 Machine: 3 EST: 1 LST: 24
Job: 2 Machine: 0 EST: 19 LST: 43
Job: 2 Machine: 1 EST: 12 LST: 36
Job: 2 Machine: 2 EST: 9 LST: 33
Job: 2 Machine: 3 EST: 0 LST: 24
Job: 3 Machine: 0 EST: 10 LST: 25
Job: 3 Machine: 1 EST: 0 LST: 15
Job: 3 Machine: 2 EST: 19 LST: 34
Job: 3 Machine: 3 EST: 7 LST: 22
Order:
Job: 0 Machine: 0 = 0 
Job: 0 Machine: 1 = 3 
Job: 0 Machine: 2 = 2 
Job: 0 Machine: 3 = 1 
Job: 1 Machine: 0 = 0 
Job: 1 Machine: 1 = 2 
Job: 1 Machine: 2 = 3 
Job: 1 Machine: 3 = 1 
Job: 2 Machine: 0 = 3 
Job: 2 Machine: 1 = 2 
Job: 2 Machine: 2 = 1 
Job: 2 Machine: 3 = 0 
Job: 3 Machine: 0 = 2 
Job: 3 Machine: 1 = 0 
Job: 3 Machine: 2 = 3 
Job: 3 Machine: 3 = 1 
Distances:
Job 0, Machine 0 -> Machine 3: distance 10
Job 0, Machine 0 -> Machine 2: distance 11
Job 0, Machine 0 -> Machine 1: distance 17
Job 0, Machine 3 -> Machine 2: distance 1
Job 0, Machine 3 -> Machine 1: distance 7
Job 0, Machine 2 -> Machine 1: distance 6
Job 1, Machine 0 -> Machine 3: distance 1
Job 1, Machine 0 -> Machine 1: distance 8
Job 1, Machine 0 -> Machine 2: distance 13
Job 1, Machine 3 -> Machine 1: distance 7
Job 1, Machine 3 -> Machine 2: distance 12
Job 1, Machine 1 -> Machine 2: distance 5
Job 2, Machine 3 -> Machine 2: distance 9
Job 2, Machine 3 -> Machine 1: distance 12
Job 2, Machine 3 -> Machine 0: distance 19
Job 2, Machine 2 -> Machine 1: distance 3
Job 2, Machine 2 -> Machine 0: distance 10
Job 2, Machine 1 -> Machine 0: distance 7
Job 3, Machine 1 -> Machine 3: distance 7
Job 3, Machine 1 -> Machine 0: distance 10
Job 3, Machine 1 -> Machine 2: distance 19
Job 3, Machine 3 -> Machine 0: distance 3
Job 3, Machine 3 -> Machine 2: distance 12
Job 3, Machine 0 -> Machine 2: distance 9
McCormic linearization
[(1, 2), (0, 0), (3, 3), (2, 0), (2, 3), (0, 2)]
obj:  0.7999999999999999
solutions:  1
+ 0.1111111111111111x(3,3) + 0.022222222222222223x(2,3) 
C:  29.16666666666667
x(0,0) = 0.00	 x(0,1) = 22.17	 x(0,2) = 11.00	 x(0,3) = 10.00	 
x(1,0) = 6.66	 x(1,1) = 14.66	 x(1,2) = 21.17	 x(1,3) = 7.66	 
x(2,0) = 28.17	 x(2,1) = 21.17	 x(2,2) = 18.17	 x(2,3) = 9.17	 
x(3,0) = 10.17	 x(3,1) = 0.00	 x(3,2) = 19.17	 x(3,3) = 7.17	 
y(0,1,0) = 0.32	 y(1,0,0) = 0.68	 
y(0,2,0) = 0.66	 y(2,0,0) = 0.34	 
y(0,3,0) = 1.00	 y(3,0,0) = 0.00	 
y(1,2,0) = 0.51	 y(2,1,0) = 0.49	 
y(1,3,0) = 0.90	 y(3,1,0) = 0.10	 
y(2,3,0) = 0.00	 y(3,2,0) = 1.00	 
y(0,1,1) = 0.03	 y(1,0,1) = 0.97	 
y(0,2,1) = 0.23	 y(2,0,1) = 0.77	 
y(0,3,1) = 0.00	 y(3,0,1) = 1.00	 
y(1,2,1) = 0.39	 y(2,1,1) = 0.61	 
y(1,3,1) = 0.32	 y(3,1,1) = 0.68	 
y(2,3,1) = 0.00	 y(3,2,1) = 1.00	 
y(0,1,2) = 0.78	 y(1,0,2) = 0.22	 
y(0,2,2) = 0.60	 y(2,0,2) = 0.40	 
y(0,3,2) = 0.99	 y(3,0,2) = 0.01	 
y(1,2,2) = 0.00	 y(2,1,2) = 1.00	 
y(1,3,2) = 0.26	 y(3,1,2) = 0.74	 
y(2,3,2) = 0.88	 y(3,2,2) = 0.12	 
y(0,1,3) = 0.22	 y(1,0,3) = 0.78	 
y(0,2,3) = 0.36	 y(2,0,3) = 0.64	 
y(0,3,3) = 0.01	 y(3,0,3) = 0.99	 
y(1,2,3) = 0.33	 y(2,1,3) = 0.67	 
y(1,3,3) = 0.10	 y(3,1,3) = 0.90	 
y(2,3,3) = 0.04	 y(3,2,3) = 0.96	 
obj:  1.0000000000000004
erro
[(0, 2), (2, 1), (2, 0), (2, 2), (1, 0), (1, 1)]
cliques:  0 mip: 27
C:  30.000000000000004
x(0,0) = 1.06	 x(0,1) = 20.12	 x(0,2) = 12.44	 x(0,3) = 11.44	 
x(1,0) = 0.06	 x(1,1) = 8.06	 x(1,2) = 13.06	 x(1,3) = 1.06	 
x(2,0) = 26.50	 x(2,1) = 19.50	 x(2,2) = 16.50	 x(2,3) = 7.50	 
x(3,0) = 10.50	 x(3,1) = 0.50	 x(3,2) = 19.50	 x(3,3) = 7.50	 
y(0,1,0) = 0.00	 y(1,0,0) = 1.00	 
y(0,2,0) = 0.89	 y(2,0,0) = 0.11	 
y(0,3,0) = 0.97	 y(3,0,0) = 0.03	 
y(1,2,0) = 1.00	 y(2,1,0) = 0.00	 
y(1,3,0) = 0.61	 y(3,1,0) = 0.39	 
y(2,3,0) = 0.00	 y(3,2,0) = 1.00	 
y(0,1,1) = 0.00	 y(1,0,1) = 1.00	 
y(0,2,1) = 0.58	 y(2,0,1) = 0.42	 
y(0,3,1) = 0.00	 y(3,0,1) = 1.00	 
y(1,2,1) = 0.72	 y(2,1,1) = 0.28	 
y(1,3,1) = 0.02	 y(3,1,1) = 0.98	 
y(2,3,1) = 0.00	 y(3,2,1) = 1.00	 
y(0,1,2) = 0.50	 y(1,0,2) = 0.50	 
y(0,2,2) = 0.28	 y(2,0,2) = 0.72	 
y(0,3,2) = 0.99	 y(3,0,2) = 0.01	 
y(1,2,2) = 0.28	 y(2,1,2) = 0.72	 
y(1,3,2) = 0.94	 y(3,1,2) = 0.06	 
y(2,3,2) = 1.00	 y(3,2,2) = 0.00	 
y(0,1,3) = 0.00	 y(1,0,3) = 1.00	 
y(0,2,3) = 0.57	 y(2,0,3) = 0.43	 
y(0,3,3) = 0.05	 y(3,0,3) = 0.95	 
y(1,2,3) = 0.48	 y(2,1,3) = 0.52	 
y(1,3,3) = 0.39	 y(3,1,3) = 0.61	 
y(2,3,3) = 0.20	 y(3,2,3) = 0.80	 
obj:  0.8114544248048167
solutions:  1
+ 0.007739938080495349x(1,2) + 0.05959752321981425x(1,3) + 0.05417956656346752x(2,3) + 0.01934984520123839x(0,2) 
[(1, 2), (1, 3), (2, 3), (0, 3), (0, 2)]
cliques:  1 mip: 76
C:  30.147622403596152
x(0,0) = 1.00	 x(0,1) = 23.15	 x(0,2) = 17.15	 x(0,3) = 16.15	 
x(1,0) = 0.00	 x(1,1) = 8.86	 x(1,2) = 13.86	 x(1,3) = 1.86	 
x(2,0) = 27.30	 x(2,1) = 20.30	 x(2,2) = 17.30	 x(2,3) = 8.30	 
x(3,0) = 10.34	 x(3,1) = 0.34	 x(3,2) = 19.34	 x(3,3) = 7.34	 
y(0,1,0) = 0.00	 y(1,0,0) = 1.00	 
y(0,2,0) = 0.91	 y(2,0,0) = 0.09	 
y(0,3,0) = 0.97	 y(3,0,0) = 0.03	 
y(1,2,0) = 1.00	 y(2,1,0) = 0.00	 
y(1,3,0) = 0.57	 y(3,1,0) = 0.43	 
y(2,3,0) = 0.00	 y(3,2,0) = 1.00	 
y(0,1,1) = 0.02	 y(1,0,1) = 0.98	 
y(0,2,1) = 0.69	 y(2,0,1) = 0.31	 
y(0,3,1) = 0.00	 y(3,0,1) = 1.00	 
y(1,2,1) = 0.81	 y(2,1,1) = 0.19	 
y(1,3,1) = 0.06	 y(3,1,1) = 0.94	 
y(2,3,1) = 0.00	 y(3,2,1) = 1.00	 
y(0,1,2) = 0.31	 y(1,0,2) = 0.69	 
y(0,2,2) = 0.16	 y(2,0,2) = 0.84	 
y(0,3,2) = 0.79	 y(3,0,2) = 0.21	 
y(1,2,2) = 0.50	 y(2,1,2) = 0.50	 
y(1,3,2) = 0.90	 y(3,1,2) = 0.10	 
y(2,3,2) = 0.34	 y(3,2,2) = 0.66	 
y(0,1,3) = 0.00	 y(1,0,3) = 1.00	 
y(0,2,3) = 0.06	 y(2,0,3) = 0.94	 
y(0,3,3) = 0.29	 y(3,0,3) = 0.71	 
y(1,2,3) = 0.79	 y(2,1,3) = 0.21	 
y(1,3,3) = 0.58	 y(3,1,3) = 0.42	 
y(2,3,3) = 0.13	 y(3,2,3) = 0.87	 
obj:  0.9304356266404775
solutions:  1
+ 0.013698630136986287x(1,3) + 0.12328767123287675x(3,3) 
[(1, 2), (1, 3), (3, 3), (3, 0), (2, 2), (1, 0)]
cliques:  1 mip: 72
C:  31.244654947753634
x(0,0) = 0.00	 x(0,1) = 18.56	 x(0,2) = 12.56	 x(0,3) = 11.56	 
x(1,0) = 1.21	 x(1,1) = 9.21	 x(1,2) = 14.21	 x(1,3) = 2.21	 
x(2,0) = 28.51	 x(2,1) = 21.51	 x(2,2) = 18.51	 x(2,3) = 9.51	 
x(3,0) = 10.87	 x(3,1) = 0.87	 x(3,2) = 20.79	 x(3,3) = 7.87	 
y(0,1,0) = 0.09	 y(1,0,0) = 0.91	 
y(0,2,0) = 0.95	 y(2,0,0) = 0.05	 
y(0,3,0) = 1.00	 y(3,0,0) = 0.00	 
y(1,2,0) = 1.00	 y(2,1,0) = 0.00	 
y(1,3,0) = 0.92	 y(3,1,0) = 0.08	 
y(2,3,0) = 0.00	 y(3,2,0) = 1.00	 
y(0,1,1) = 0.10	 y(1,0,1) = 0.90	 
y(0,2,1) = 0.71	 y(2,0,1) = 0.29	 
y(0,3,1) = 0.00	 y(3,0,1) = 1.00	 
y(1,2,1) = 0.69	 y(2,1,1) = 0.31	 
y(1,3,1) = 0.06	 y(3,1,1) = 0.94	 
y(2,3,1) = 0.00	 y(3,2,1) = 1.00	 
y(0,1,2) = 0.56	 y(1,0,2) = 0.44	 
y(0,2,2) = 0.36	 y(2,0,2) = 0.64	 
y(0,3,2) = 1.00	 y(3,0,2) = 0.00	 
y(1,2,2) = 0.33	 y(2,1,2) = 0.67	 
y(1,3,2) = 0.94	 y(3,1,2) = 0.06	 
y(2,3,2) = 0.87	 y(3,2,2) = 0.13	 
y(0,1,3) = 0.00	 y(1,0,3) = 1.00	 
y(0,2,3) = 0.63	 y(2,0,3) = 0.37	 
y(0,3,3) = 0.03	 y(3,0,3) = 0.97	 
y(1,2,3) = 0.72	 y(2,1,3) = 0.28	 
y(1,3,3) = 0.50	 y(3,1,3) = 0.50	 
y(2,3,3) = 0.05	 y(3,2,3) = 0.95	 
obj:  0.8989219509496342
solutions:  1
+ 0.046728971962616835x(1,2) + 0.018691588785046724x(0,2) 
[(1, 2), (1, 3), (3, 3), (2, 3), (0, 3), (0, 2)]
cliques:  1 mip: 91
C:  32.28839794482781
x(0,0) = 0.56	 x(0,1) = 23.14	 x(0,2) = 17.14	 x(0,3) = 13.23	 
x(1,0) = 0.47	 x(1,1) = 9.54	 x(1,2) = 14.54	 x(1,3) = 2.54	 
x(2,0) = 31.29	 x(2,1) = 19.90	 x(2,2) = 16.46	 x(2,3) = 7.46	 
x(3,0) = 10.89	 x(3,1) = 0.89	 x(3,2) = 22.17	 x(3,3) = 7.89	 
y(0,1,0) = 0.04	 y(1,0,0) = 0.96	 
y(0,2,0) = 0.98	 y(2,0,0) = 0.02	 
y(0,3,0) = 1.00	 y(3,0,0) = 0.00	 
y(1,2,0) = 1.00	 y(2,1,0) = 0.00	 
y(1,3,0) = 0.96	 y(3,1,0) = 0.04	 
y(2,3,0) = 0.00	 y(3,2,0) = 1.00	 
y(0,1,1) = 0.00	 y(1,0,1) = 1.00	 
y(0,2,1) = 0.27	 y(2,0,1) = 0.73	 
y(0,3,1) = 0.00	 y(3,0,1) = 1.00	 
y(1,2,1) = 0.77	 y(2,1,1) = 0.23	 
y(1,3,1) = 0.04	 y(3,1,1) = 0.96	 
y(2,3,1) = 0.00	 y(3,2,1) = 1.00	 
y(0,1,2) = 0.39	 y(1,0,2) = 0.61	 
y(0,2,2) = 0.19	 y(2,0,2) = 0.81	 
y(0,3,2) = 0.85	 y(3,0,2) = 0.15	 
y(1,2,2) = 0.21	 y(2,1,2) = 0.79	 
y(1,3,2) = 0.99	 y(3,1,2) = 0.01	 
y(2,3,2) = 0.98	 y(3,2,2) = 0.02	 
y(0,1,3) = 0.00	 y(1,0,3) = 1.00	 
y(0,2,3) = 0.14	 y(2,0,3) = 0.86	 
y(0,3,3) = 0.12	 y(3,0,3) = 0.88	 
y(1,2,3) = 0.61	 y(2,1,3) = 0.39	 
y(1,3,3) = 0.42	 y(3,1,3) = 0.58	 
y(2,3,3) = 0.65	 y(3,2,3) = 0.35	 
obj:  0.8624778432551204
solutions:  1
+ 0.06306306306306307x(1,3) + 0.02702702702702703x(3,3) + 0.06552006552006553x(2,3) 
[(1, 2), (1, 3), (3, 3), (2, 3), (0, 2)]
cliques:  1 mip: 87
C:  32.9999962024693
x(0,0) = 0.03	 x(0,1) = 24.68	 x(0,2) = 18.68	 x(0,3) = 16.05	 
x(1,0) = 3.39	 x(1,1) = 12.27	 x(1,2) = 17.27	 x(1,3) = 5.27	 
x(2,0) = 32.00	 x(2,1) = 19.99	 x(2,2) = 16.86	 x(2,3) = 7.05	 
x(3,0) = 10.62	 x(3,1) = 0.62	 x(3,2) = 21.93	 x(3,3) = 7.62	 
y(0,1,0) = 0.39	 y(1,0,0) = 0.61	 
y(0,2,0) = 1.00	 y(2,0,0) = 0.00	 
y(0,3,0) = 1.00	 y(3,0,0) = 0.00	 
y(1,2,0) = 1.00	 y(2,1,0) = 0.00	 
y(1,3,0) = 0.80	 y(3,1,0) = 0.20	 
y(2,3,0) = 0.00	 y(3,2,0) = 1.00	 
y(0,1,1) = 0.00	 y(1,0,1) = 1.00	 
y(0,2,1) = 0.17	 y(2,0,1) = 0.83	 
y(0,3,1) = 0.00	 y(3,0,1) = 1.00	 
y(1,2,1) = 0.88	 y(2,1,1) = 0.12	 
y(1,3,1) = 0.16	 y(3,1,1) = 0.84	 
y(2,3,1) = 0.00	 y(3,2,1) = 1.00	 
y(0,1,2) = 0.47	 y(1,0,2) = 0.53	 
y(0,2,2) = 0.08	 y(2,0,2) = 0.92	 
y(0,3,2) = 0.61	 y(3,0,2) = 0.39	 
y(1,2,2) = 0.28	 y(2,1,2) = 0.72	 
y(1,3,2) = 0.87	 y(3,1,2) = 0.13	 
y(2,3,2) = 0.91	 y(3,2,2) = 0.09	 
y(0,1,3) = 0.00	 y(1,0,3) = 1.00	 
y(0,2,3) = 0.00	 y(2,0,3) = 1.00	 
y(0,3,3) = 0.61	 y(3,0,3) = 0.39	 
y(1,2,3) = 0.49	 y(2,1,3) = 0.51	 
y(1,3,3) = 0.22	 y(3,1,3) = 0.78	 
y(2,3,3) = 0.14	 y(3,2,3) = 0.86	 
obj:  0.9236884961767123
solutions:  1
+ 0.006122448979591846x(1,3) + 0.10010465724751438x(3,3) + 0.014599686028257465x(2,3) + 0.00162218733647305x(0,3) 
[(1, 2), (1, 3), (3, 3), (2, 3), (0, 3), (0, 2)]
cliques:  1 mip: 95
C:  32.999996202469305
x(0,0) = 0.14	 x(0,1) = 23.48	 x(0,2) = 17.48	 x(0,3) = 12.78	 
x(1,0) = 2.22	 x(1,1) = 13.16	 x(1,2) = 18.25	 x(1,3) = 3.38	 
x(2,0) = 32.00	 x(2,1) = 20.89	 x(2,2) = 17.58	 x(2,3) = 8.58	 
x(3,0) = 11.33	 x(3,1) = 1.33	 x(3,2) = 21.47	 x(3,3) = 8.33	 
y(0,1,0) = 0.28	 y(1,0,0) = 0.72	 
y(0,2,0) = 1.00	 y(2,0,0) = 0.00	 
y(0,3,0) = 1.00	 y(3,0,0) = 0.00	 
y(1,2,0) = 1.00	 y(2,1,0) = 0.00	 
y(1,3,0) = 0.86	 y(3,1,0) = 0.14	 
y(2,3,0) = 0.00	 y(3,2,0) = 1.00	 
y(0,1,1) = 0.00	 y(1,0,1) = 1.00	 
y(0,2,1) = 0.31	 y(2,0,1) = 0.69	 
y(0,3,1) = 0.00	 y(3,0,1) = 1.00	 
y(1,2,1) = 0.88	 y(2,1,1) = 0.12	 
y(1,3,1) = 0.20	 y(3,1,1) = 0.80	 
y(2,3,1) = 0.00	 y(3,2,1) = 1.00	 
y(0,1,2) = 0.62	 y(1,0,2) = 0.38	 
y(0,2,2) = 0.24	 y(2,0,2) = 0.76	 
y(0,3,2) = 0.89	 y(3,0,2) = 0.11	 
y(1,2,2) = 0.17	 y(2,1,2) = 0.83	 
y(1,3,2) = 0.81	 y(3,1,2) = 0.19	 
y(2,3,2) = 0.86	 y(3,2,2) = 0.14	 
y(0,1,3) = 0.00	 y(1,0,3) = 1.00	 
y(0,2,3) = 0.21	 y(2,0,3) = 0.79	 
y(0,3,3) = 0.07	 y(3,0,3) = 0.93	 
y(1,2,3) = 0.51	 y(2,1,3) = 0.49	 
y(1,3,3) = 0.33	 y(3,1,3) = 0.67	 
y(2,3,3) = 0.11	 y(3,2,3) = 0.89	 
obj:  0.9999999999999999
erro
[(1, 2), (1, 3), (3, 3), (2, 3), (0, 2)]
cliques:  0 mip: 103
C:  32.99999625181794
x(0,0) = 0.00	 x(0,1) = 17.00	 x(0,2) = 11.00	 x(0,3) = 10.00	 
x(1,0) = 1.93	 x(1,1) = 12.23	 x(1,2) = 17.23	 x(1,3) = 3.10	 
x(2,0) = 32.00	 x(2,1) = 23.35	 x(2,2) = 20.35	 x(2,3) = 8.83	 
x(3,0) = 11.35	 x(3,1) = 1.35	 x(3,2) = 21.95	 x(3,3) = 8.35	 
y(0,1,0) = 0.34	 y(1,0,0) = 0.66	 
y(0,2,0) = 1.00	 y(2,0,0) = 0.00	 
y(0,3,0) = 1.00	 y(3,0,0) = 0.00	 
y(1,2,0) = 1.00	 y(2,1,0) = 0.00	 
y(1,3,0) = 0.87	 y(3,1,0) = 0.13	 
y(2,3,0) = 0.00	 y(3,2,0) = 1.00	 
y(0,1,1) = 0.01	 y(1,0,1) = 0.99	 
y(0,2,1) = 0.98	 y(2,0,1) = 0.02	 
y(0,3,1) = 0.00	 y(3,0,1) = 1.00	 
y(1,2,1) = 0.82	 y(2,1,1) = 0.18	 
y(1,3,1) = 0.00	 y(3,1,1) = 1.00	 
y(2,3,1) = 0.00	 y(3,2,1) = 1.00	 
y(0,1,2) = 1.00	 y(1,0,2) = -0.00	 
y(0,2,2) = 0.94	 y(2,0,2) = 0.06	 
y(0,3,2) = 0.63	 y(3,0,2) = 0.37	 
y(1,2,2) = 0.86	 y(2,1,2) = 0.14	 
y(1,3,2) = 0.87	 y(3,1,2) = 0.13	 
y(2,3,2) = 0.83	 y(3,2,2) = 0.17	 
y(0,1,3) = 0.00	 y(1,0,3) = 1.00	 
y(0,2,3) = 0.57	 y(2,0,3) = 0.43	 
y(0,3,3) = 0.09	 y(3,0,3) = 0.91	 
y(1,2,3) = 0.96	 y(2,1,3) = 0.04	 
y(1,3,3) = 0.38	 y(3,1,3) = 0.62	 
y(2,3,3) = 0.10	 y(3,2,3) = 0.90	 
obj:  0.921343516823506
solutions:  1
+ 0.035714285714285685x(1,3) + 0.015306122448979578x(3,3) + 0.03975340136054418x(2,3) + 0.03316326530612249x(0,3) 
[(3, 2), (1, 3), (3, 3), (2, 3), (0, 3), (0, 2)]
cliques:  1 mip: 85
C:  33.019536562567694
x(0,0) = 0.19	 x(0,1) = 22.76	 x(0,2) = 16.76	 x(0,3) = 12.36	 
x(1,0) = 1.57	 x(1,1) = 10.42	 x(1,2) = 15.42	 x(1,3) = 2.83	 
x(2,0) = 32.02	 x(2,1) = 20.98	 x(2,2) = 17.98	 x(2,3) = 8.98	 
x(3,0) = 11.63	 x(3,1) = 1.63	 x(3,2) = 21.81	 x(3,3) = 8.63	 
y(0,1,0) = 0.23	 y(1,0,0) = 0.77	 
y(0,2,0) = 0.99	 y(2,0,0) = 0.01	 
y(0,3,0) = 1.00	 y(3,0,0) = 0.00	 
y(1,2,0) = 1.00	 y(2,1,0) = 0.00	 
y(1,3,0) = 0.90	 y(3,1,0) = 0.10	 
y(2,3,0) = 0.00	 y(3,2,0) = 1.00	 
y(0,1,1) = 0.00	 y(1,0,1) = 1.00	 
y(0,2,1) = 0.41	 y(2,0,1) = 0.59	 
y(0,3,1) = 0.00	 y(3,0,1) = 1.00	 
y(1,2,1) = 0.90	 y(2,1,1) = 0.10	 
y(1,3,1) = 0.00	 y(3,1,1) = 1.00	 
y(2,3,1) = 0.00	 y(3,2,1) = 1.00	 
y(0,1,2) = 0.48	 y(1,0,2) = 0.52	 
y(0,2,2) = 0.34	 y(2,0,2) = 0.66	 
y(0,3,2) = 0.69	 y(3,0,2) = 0.31	 
y(1,2,2) = 0.84	 y(2,1,2) = 0.16	 
y(1,3,2) = 0.94	 y(3,1,2) = 0.06	 
y(2,3,2) = 0.94	 y(3,2,2) = 0.06	 
y(0,1,3) = 0.00	 y(1,0,3) = 1.00	 
y(0,2,3) = 0.30	 y(2,0,3) = 0.70	 
y(0,3,3) = 0.10	 y(3,0,3) = 0.90	 
y(1,2,3) = 0.97	 y(2,1,3) = 0.03	 
y(1,3,3) = 0.89	 y(3,1,3) = 0.11	 
y(2,3,3) = 0.48	 y(3,2,3) = 0.52	 
obj:  1.0338159119310042
erro
[(1, 2), (0, 1), (3, 3), (2, 1), (2, 3), (0, 2)]
cliques:  0 mip: 100
C:  33.022864917577664
x(0,0) = 0.40	 x(0,1) = 21.20	 x(0,2) = 15.20	 x(0,3) = 12.64	 
x(1,0) = 2.02	 x(1,1) = 10.41	 x(1,2) = 15.41	 x(1,3) = 3.41	 
x(2,0) = 32.02	 x(2,1) = 22.55	 x(2,2) = 17.01	 x(2,3) = 8.01	 
x(3,0) = 12.64	 x(3,1) = 2.64	 x(3,2) = 22.38	 x(3,3) = 9.64	 
y(0,1,0) = 0.21	 y(1,0,0) = 0.79	 
y(0,2,0) = 0.99	 y(2,0,0) = 0.01	 
y(0,3,0) = 1.00	 y(3,0,0) = 0.00	 
y(1,2,0) = 1.00	 y(2,1,0) = 0.00	 
y(1,3,0) = 0.88	 y(3,1,0) = 0.12	 
y(2,3,0) = 0.00	 y(3,2,0) = 1.00	 
y(0,1,1) = 0.00	 y(1,0,1) = 1.00	 
y(0,2,1) = 0.59	 y(2,0,1) = 0.41	 
y(0,3,1) = 0.00	 y(3,0,1) = 1.00	 
y(1,2,1) = 0.89	 y(2,1,1) = 0.11	 
y(1,3,1) = 0.00	 y(3,1,1) = 1.00	 
y(2,3,1) = 0.00	 y(3,2,1) = 1.00	 
y(0,1,2) = 0.67	 y(1,0,2) = 0.33	 
y(0,2,2) = 0.22	 y(2,0,2) = 0.78	 
y(0,3,2) = 0.93	 y(3,0,2) = 0.07	 
y(1,2,2) = 0.82	 y(2,1,2) = 0.18	 
y(1,3,2) = 0.92	 y(3,1,2) = 0.08	 
y(2,3,2) = 1.00	 y(3,2,2) = 0.00	 
y(0,1,3) = 0.00	 y(1,0,3) = 1.00	 
y(0,2,3) = 0.53	 y(2,0,3) = 0.47	 
y(0,3,3) = 0.00	 y(3,0,3) = 1.00	 
y(1,2,3) = 0.92	 y(2,1,3) = 0.08	 
y(1,3,3) = 0.72	 y(3,1,3) = 0.28	 
y(2,3,3) = 0.28	 y(3,2,3) = 0.72	 
obj:  1.0041551266243096
erro
[(0, 1), (1, 2), (2, 1), (2, 3), (0, 3), (0, 2)]
cliques:  0 mip: 94
C:  33.05684463289479
x(0,0) = 0.26	 x(0,1) = 20.03	 x(0,2) = 14.03	 x(0,3) = 12.00	 
x(1,0) = 1.43	 x(1,1) = 9.43	 x(1,2) = 15.87	 x(1,3) = 2.43	 
x(2,0) = 32.06	 x(2,1) = 23.58	 x(2,2) = 18.49	 x(2,3) = 9.49	 
x(3,0) = 12.00	 x(3,1) = 2.00	 x(3,2) = 21.30	 x(3,3) = 9.00	 
y(0,1,0) = 0.20	 y(1,0,0) = 0.80	 
y(0,2,0) = 0.99	 y(2,0,0) = 0.01	 
y(0,3,0) = 1.00	 y(3,0,0) = 0.00	 
y(1,2,0) = 1.00	 y(2,1,0) = 0.00	 
y(1,3,0) = 0.90	 y(3,1,0) = 0.10	 
y(2,3,0) = 0.00	 y(3,2,0) = 1.00	 
y(0,1,1) = 0.00	 y(1,0,1) = 1.00	 
y(0,2,1) = 0.75	 y(2,0,1) = 0.25	 
y(0,3,1) = 0.00	 y(3,0,1) = 1.00	 
y(1,2,1) = 0.78	 y(2,1,1) = 0.22	 
y(1,3,1) = 0.00	 y(3,1,1) = 1.00	 
y(2,3,1) = 0.00	 y(3,2,1) = 1.00	 
y(0,1,2) = 0.60	 y(1,0,2) = 0.40	 
y(0,2,2) = 0.43	 y(2,0,2) = 0.57	 
y(0,3,2) = 0.97	 y(3,0,2) = 0.03	 
y(1,2,2) = 0.85	 y(2,1,2) = 0.15	 
y(1,3,2) = 0.90	 y(3,1,2) = 0.10	 
y(2,3,2) = 0.99	 y(3,2,2) = 0.01	 
y(0,1,3) = 0.00	 y(1,0,3) = 1.00	 
y(0,2,3) = 0.59	 y(2,0,3) = 0.41	 
y(0,3,3) = 0.00	 y(3,0,3) = 1.00	 
y(1,2,3) = 1.00	 y(2,1,3) = 0.00	 
y(1,3,3) = 0.79	 y(3,1,3) = 0.21	 
y(2,3,3) = 0.10	 y(3,2,3) = 0.90	 
obj:  0.9970202291956612
solutions:  1
+ 0.03915171288743882x(1,2) + 0.0038064165307232227x(2,2) + 0.021750951604132675x(0,2) 
[(1, 2), (2, 3), (2, 2), (0, 3), (0, 2)]
cliques:  1 mip: 90
C:  33.99996744213934
x(0,0) = 0.20	 x(0,1) = 24.48	 x(0,2) = 17.36	 x(0,3) = 11.40	 
x(1,0) = 3.40	 x(1,1) = 11.40	 x(1,2) = 16.40	 x(1,3) = 4.40	 
x(2,0) = 33.00	 x(2,1) = 21.89	 x(2,2) = 17.46	 x(2,3) = 8.46	 
x(3,0) = 11.40	 x(3,1) = 1.40	 x(3,2) = 20.94	 x(3,3) = 8.40	 
y(0,1,0) = 0.19	 y(1,0,0) = 0.81	 
y(0,2,0) = 0.99	 y(2,0,0) = 0.01	 
y(0,3,0) = 1.00	 y(3,0,0) = 0.00	 
y(1,2,0) = 1.00	 y(2,1,0) = 0.00	 
y(1,3,0) = 0.80	 y(3,1,0) = 0.20	 
y(2,3,0) = 0.00	 y(3,2,0) = 1.00	 
y(0,1,1) = 0.00	 y(1,0,1) = 1.00	 
y(0,2,1) = 0.32	 y(2,0,1) = 0.68	 
y(0,3,1) = 0.00	 y(3,0,1) = 1.00	 
y(1,2,1) = 0.80	 y(2,1,1) = 0.20	 
y(1,3,1) = 0.00	 y(3,1,1) = 1.00	 
y(2,3,1) = 0.00	 y(3,2,1) = 1.00	 
y(0,1,2) = 0.42	 y(1,0,2) = 0.58	 
y(0,2,2) = 0.13	 y(2,0,2) = 0.87	 
y(0,3,2) = 0.76	 y(3,0,2) = 0.24	 
y(1,2,2) = 0.34	 y(2,1,2) = 0.66	 
y(1,3,2) = 0.67	 y(3,1,2) = 0.33	 
y(2,3,2) = 1.00	 y(3,2,2) = 0.00	 
y(0,1,3) = 0.00	 y(1,0,3) = 1.00	 
y(0,2,3) = 0.26	 y(2,0,3) = 0.74	 
y(0,3,3) = 0.00	 y(3,0,3) = 1.00	 
y(1,2,3) = 0.91	 y(2,1,3) = 0.09	 
y(1,3,3) = 0.61	 y(3,1,3) = 0.39	 
y(2,3,3) = 0.12	 y(3,2,3) = 0.88	 
obj:  1.086089887801367
erro
[(1, 2), (1, 3), (3, 3), (2, 2), (0, 2)]
cliques:  0 mip: 73
C:  33.99996744213934
x(0,0) = 0.20	 x(0,1) = 24.48	 x(0,2) = 17.36	 x(0,3) = 11.40	 
x(1,0) = 3.40	 x(1,1) = 11.40	 x(1,2) = 16.40	 x(1,3) = 4.40	 
x(2,0) = 33.00	 x(2,1) = 21.89	 x(2,2) = 17.46	 x(2,3) = 8.46	 
x(3,0) = 11.40	 x(3,1) = 1.40	 x(3,2) = 20.94	 x(3,3) = 8.40	 
y(0,1,0) = 0.19	 y(1,0,0) = 0.81	 
y(0,2,0) = 0.99	 y(2,0,0) = 0.01	 
y(0,3,0) = 1.00	 y(3,0,0) = 0.00	 
y(1,2,0) = 1.00	 y(2,1,0) = 0.00	 
y(1,3,0) = 0.80	 y(3,1,0) = 0.20	 
y(2,3,0) = 0.00	 y(3,2,0) = 1.00	 
y(0,1,1) = 0.00	 y(1,0,1) = 1.00	 
y(0,2,1) = 0.32	 y(2,0,1) = 0.68	 
y(0,3,1) = 0.00	 y(3,0,1) = 1.00	 
y(1,2,1) = 0.80	 y(2,1,1) = 0.20	 
y(1,3,1) = 0.00	 y(3,1,1) = 1.00	 
y(2,3,1) = 0.00	 y(3,2,1) = 1.00	 
y(0,1,2) = 0.42	 y(1,0,2) = 0.58	 
y(0,2,2) = 0.13	 y(2,0,2) = 0.87	 
y(0,3,2) = 0.76	 y(3,0,2) = 0.24	 
y(1,2,2) = 0.34	 y(2,1,2) = 0.66	 
y(1,3,2) = 0.67	 y(3,1,2) = 0.33	 
y(2,3,2) = 1.00	 y(3,2,2) = 0.00	 
y(0,1,3) = 0.00	 y(1,0,3) = 1.00	 
y(0,2,3) = 0.26	 y(2,0,3) = 0.74	 
y(0,3,3) = 0.00	 y(3,0,3) = 1.00	 
y(1,2,3) = 0.91	 y(2,1,3) = 0.09	 
y(1,3,3) = 0.61	 y(3,1,3) = 0.39	 
y(2,3,3) = 0.12	 y(3,2,3) = 0.88	 
obj:  1.086089887801367
erro
[(1, 2), (1, 3), (3, 3), (2, 2), (0, 2)]
cliques:  0 mip: 0
iterações: 13 cortes cliques encontrados: 8 mip: 1011 objective:  33.99996744213934
Coin0506I Presolve 157 (-171) rows, 90 (-71) columns and 490 (-260) elements
Clp1000I sum of infeasibilities 1.79124e-08 - average 1.14092e-10, 0 fixed columns
Coin0506I Presolve 157 (0) rows, 90 (0) columns and 490 (0) elements
Clp0029I End of values pass after 90 iterations
Clp0000I Optimal - objective value 29
Clp0000I Optimal - objective value 29
Coin0511I After Postsolve, objective 29, infeasibilities - dual 0 (0), primal 0 (0)
Clp0000I Optimal - objective value 29
Clp0000I Optimal - objective value 29
Clp0000I Optimal - objective value 29
Coin0511I After Postsolve, objective 29, infeasibilities - dual 0 (0), primal 0 (0)
Clp0032I Optimal objective 29 - 0 iterations time 0.012, Presolve 0.00, Idiot 0.01
Coin3009W Conflict graph built in 0.000 seconds, density: 0.095%
